50
    1   345   345
    2   299   299
    3   193   193
    4   296   296
    5   467   467
    6   429   429
    7   100   100
    8    65    65
    9   141   141
   10   123   123
   11   291   291
   12   202   202
   13   170   170
   14   499   499
   15   281   281
   16   401   401
   17    46    46
   18   196   196
   19    59    59
   20   404   404
   21   357   357
   22   204   204
   23   100   100
   24   220   220
   25   493   493
   26   408   408
   27   161   161
   28   327   327
   29   206   206
   30   148   148
   31   254   254
   32   117   117
   33   310   310
   34   111   111
   35   425   425
   36    15    15
   37   258   258
   38   320   320
   39   407   407
   40   179   179
   41   114   114
   42   291   291
   43   313   313
   44   104   104
   45   401   401
   46   301   301
   47   496   496
   48   393   393
   49   350   350
   50   246   246
8690
